minizinc/sudoku_problems2/sudoku_p18.dzn
%
% sudoku_p18.dzn
% See http://www.hakank.org/minizinc/sudoku_gcc.mzn
% 
% This problem is problem 18 from
% Gecode's sudoku.cpp
% http://www.gecode.org/gecode-doc-latest/sudoku_8cpp-source.html
% 
x = array2d(1..n, 1..n, [   
% 18
% The following minimal 25*25 Sudokus are from Alain Frisch
% Sudoku website http://www.eleves.ens.fr/home/frisch/sudoku.html
  _,  _,  _, 16,  _,  _,  _,  9,  _,  _,  4,  _,  _,  _,  _,  _,  6, 15,  _,  _, 21,  8,  _,  _,  _,
 12, 14, 18, 23,  _, 17, 13, 22,  _, 24, 15,  _,  1, 21,  _,  _, 10,  _,  _,  9, 25, 19,  _,  4,  _,
  _,  _,  _,  _,  _, 10,  _,  _,  _, 21,  _,  _, 19, 11, 23,  _,  2,  _, 13,  _,  1,  _,  _,  _, 17,
 25,  4,  9,  _,  _,  _, 19, 11,  2,  3,  _, 10, 13,  _,  _,  7, 14,  _,  _, 12,  5, 15,  _,  _,  _,
 10,  1, 17,  _,  _,  _,  _, 15,  _, 23,  5,  _,  _,  _,  _, 18,  _, 11, 21,  _,  _,  _,  2,  6,  _,
  _,  _,  _,  _,  7,  _,  _, 12,  _,  6,  _,  _,  _, 17,  4, 11,  _,  _,  1,  _,  _,  _,  _, 18,  5,
  _, 15,  _, 25,  _,  _,  _, 18,  _,  _, 11,  _,  _,  7,  _,  5,  _, 21,  _,  _,  _,  9,  _,  _,  _,
  _, 21,  6, 10,  _,  _,  _,  5, 24, 15,  _,  8, 25,  _,  _,  _, 20,  _, 23, 14,  _,  _,  7,  3,  4,
 11,  2,  _, 14,  _,  _, 21,  _,  _,  _,  1, 19,  _,  5,  _,  _,  _,  _, 24,  7,  _, 20,  _, 10, 25,
 24,  _,  5,  _, 12, 11,  1,  _, 25,  _,  _,  _,  _,  3, 14, 22,  _,  _,  _,  _,  2, 21,  _, 17,  _,
  2,  _,  _, 22, 19,  _, 10,  _,  _,  _,  9,  _,  3,  _,  7,  _,  _,  _,  _,  _,  _, 25,  _,  8, 12,
  _,  _,  _,  _,  _, 12, 15,  _, 13, 25, 16,  6,  2, 23,  _, 14,  _,  _,  _, 24, 17,  _, 22,  _, 19,
  _, 13, 21,  _,  _, 24, 22,  _,  _, 18, 14,  _, 11,  8,  _,  _, 23, 17,  _,  _,  _,  3,  _,  _, 20,
  _, 12, 24,  1, 15,  _, 11,  _, 23,  _, 10, 17,  _,  _, 25,  _,  7,  8,  _, 19, 14,  _,  _,  _, 13,
 14,  _,  _,  6,  _,  _,  _,  _,  _, 17,  _,  _,  _,  _,  _,  _,  4, 22,  _, 20, 18, 11,  9,  _,  _,
 23,  _, 19,  _,  _,  6,  _,  _,  _,  _,  _,  _, 12,  _,  _,  1,  _,  5,  _, 16,  _,  _, 17,  _,  _,
  _,  _,  _,  7,  5, 21, 16,  _,  _,  _,  6,  _,  _,  1,  _,  _, 12, 18,  _,  _,  4,  _, 14,  _,  _,
  9, 20,  _,  _,  6,  _,  _,  _,  _,  _, 17, 16, 23,  _, 24,  2, 25,  _,  4,  _,  _,  _,  _,  _,  _,
  _, 24, 10,  _,  _, 18, 25,  8,  4,  9,  _,  _,  _,  2,  _, 20,  3,  _,  _,  _,  7, 16, 23,  _,  _,
  _,  _, 16,  _,  _,  _,  _, 23,  _,  _,  _, 25,  _, 13,  9,  _,  _,  _,  _, 10,  _,  _,  _, 12,  1,
 19,  _,  _,  _, 22,  _, 23, 10, 15, 14,  _,  4,  _,  _,  2,  3,  _,  7,  _,  _,  _,  _,  8, 21,  _,
  _,  _,  _,  _,  _, 19,  _, 17,  9, 12, 13,  1, 21, 25,  _,  _, 16, 24,  _,  _,  _,  _,  4, 22, 14,
  4,  8, 23, 20,  _,  _,  5,  _, 22,  _,  _,  _,  _,  _,  _, 19, 21,  _,  _,  _,  _,  _,  _,  _,  9,
  _, 18,  _, 24, 16,  _,  _,  _,  _,  8,  3,  5,  _, 10,  _, 13, 17,  _,  _, 25,  _,  _,  _,  _,  _,
  3,  5,  _,  _,  _,  _,  _,  _, 21,  _, 19,  _,  _, 14,  _,  _,  _,  _,  8, 18, 16,  _,  6,  7, 11
]);

n = 25;


